
Gurobi 12.0.0 (win64) logging started Mon May  4 21:15:53 2026

Set parameter LogFile to value "C:\Users\Asus\Documents\GitHub\logistics-model2\internal-logistics-model2\results\SR_SV_RD\case2\result_SR_SV_RD_case2_P10_eps9999_2026_05_04_21_15.log"
Gurobi Optimizer version 12.0.0 build v12.0.0rc1 (win64 - Windows 10.0 (19045.2))

CPU model: 12th Gen Intel(R) Core(TM) i7-12650H, instruction set [SSE2|AVX|AVX2]
Thread count: 10 physical cores, 16 logical processors, using up to 16 threads

Non-default parameters:
TimeLimit  600
MIPGap  0.01
Presolve  2

Optimize a model with 2752 rows, 823 columns and 13949 nonzeros
Model fingerprint: 0x3b7f46ea
Variable types: 138 continuous, 685 integer (660 binary)
Coefficient statistics:
  Matrix range     [1e+00, 5e+02]
  Objective range  [1e-03, 1e+00]
  Bounds range     [1e+00, 3e+01]
  RHS range        [1e+00, 1e+04]
Presolve removed 2186 rows and 637 columns
Presolve time: 0.01s
Presolved: 566 rows, 186 columns, 2612 nonzeros
Variable types: 41 continuous, 145 integer (133 binary)
Found heuristic solution: objective 158.8210000
Root relaxation presolve removed 29 rows and 1 columns
Root relaxation presolved: 537 rows, 187 columns, 2539 nonzeros


Root relaxation: objective 1.230000e-01, 128 iterations, 0.01 seconds (0.00 work units)

    Nodes    |    Current Node    |     Objective Bounds      |     Work
 Expl Unexpl |  Obj  Depth IntInf | Incumbent    BestBd   Gap | It/Node Time

     0     0    0.12300    0   12  158.82100    0.12300   100%     -    0s
H    0     0                     153.7850000    0.12300   100%     -    0s
     0     0    0.12300    0   30  153.78500    0.12300   100%     -    0s
     0     0    0.12300    0   33  153.78500    0.12300   100%     -    0s
     0     0    0.12729    0   36  153.78500    0.12729   100%     -    0s
H    0     0                     145.7190000    0.13300   100%     -    0s
     0     0    0.13300    0   51  145.71900    0.13300   100%     -    0s
     0     0    0.15960    0   42  145.71900    0.15960   100%     -    0s
     0     0    0.16302    0   49  145.71900    0.16302   100%     -    0s
     0     0    0.17392    0   49  145.71900    0.17392   100%     -    0s
     0     0    0.18643    0   47  145.71900    0.18643   100%     -    0s
     0     0    0.19879    0   51  145.71900    0.19879   100%     -    0s
H    0     0                     139.6750000    0.19882   100%     -    0s
     0     0    0.19927    0   51  139.67500    0.19927   100%     -    0s
     0     0    0.20304    0   49  139.67500    0.20304   100%     -    0s
H    0     0                     138.6710000    0.20410   100%     -    0s
     0     0    0.20410    0   51  138.67100    0.20410   100%     -    0s
     0     0    0.20712    0   49  138.67100    0.20712   100%     -    0s
     0     0    0.20728    0   52  138.67100    0.20728   100%     -    0s
     0     0    0.20870    0   43  138.67100    0.20870   100%     -    0s
H    0     0                     132.6730000    0.20901   100%     -    0s
     0     0    0.20901    0   49  132.67300    0.20901   100%     -    0s
     0     0    0.20904    0   49  132.67300    0.20904   100%     -    0s
     0     0    0.20916    0   49  132.67300    0.20916   100%     -    0s
     0     0    0.20934    0   50  132.67300    0.20934   100%     -    0s
     0     0    0.20939    0   50  132.67300    0.20939   100%     -    0s
     0     0    0.20939    0   51  132.67300    0.20939   100%     -    0s
     0     0    0.20939    0   52  132.67300    0.20939   100%     -    0s
     0     0    0.20939    0   52  132.67300    0.20939   100%     -    0s
     0     0    0.20946    0   52  132.67300    0.20946   100%     -    0s
     0     2    0.20957    0   43  132.67300    0.20957   100%     -    0s
H  138   153                     130.6600000    0.24083   100%  30.6    0s
H  232   235                     122.5000000    0.24083   100%  27.7    0s
H  303   288                     119.4870000    0.24083   100%  24.2    0s
H  340   305                     110.4640000    0.24083   100%  23.3    0s
*  753   541              24     108.4420000    0.25687   100%  19.1    0s
H 1524   890                     108.4370000    0.26041   100%  19.4    0s
H 2149  1037                     102.3750000    0.27132   100%  18.7    0s

Cutting planes:
  Learned: 1
  Gomory: 6
  Cover: 15
  Implied bound: 50
  Projected implied bound: 1
  Clique: 3
  MIR: 54
  StrongCG: 4
  Flow cover: 68
  Inf proof: 1
  RLT: 10
  Relax-and-lift: 11

Explored 5596 nodes (180756 simplex iterations) in 1.53 seconds (1.64 work units)
Thread count was 16 (of 16 available processors)

Solution count 10: 102.375 108.437 108.442 ... 139.675

Optimal solution found (tolerance 1.00e-02)
Best objective 1.023750000000e+02, best bound 1.023750000000e+02, gap 0.0000%
